
Gurobi 6.5.2 (win64) logging started 07/22/16 21:11:59


Gurobi 6.5.2 (win64) logging started 07/22/16 21:11:59

Optimize a model with 1251 rows, 588 columns and 3420 nonzeros
Coefficient statistics:
  Matrix range    [6e-08, 4e+02]
  Objective range [1e+00, 1e+00]
  Bounds range    [1e+00, 1e+00]
  RHS range       [6e-06, 1e+03]
Presolve removed 736 rows and 144 columns
Presolve time: 0.02s
Presolved: 515 rows, 444 columns, 2211 nonzeros
Variable types: 263 continuous, 181 integer (181 binary)

Root relaxation: objective 1.387304e+02, 974 iterations, 0.03 seconds

    Nodes    |    Current Node    |     Objective Bounds      |     Work
 Expl Unexpl |  Obj  Depth IntInf | Incumbent    BestBd   Gap | It/Node Time

     0     0  138.73038    0   87          -  138.73038      -     -    0s
     0     0  152.26894    0   81          -  152.26894      -     -    0s
     0     0  152.58222    0   80          -  152.58222      -     -    0s
     0     0  152.58714    0   79          -  152.58714      -     -    0s
     0     0  153.07583    0   79          -  153.07583      -     -    0s
     0     0  153.08926    0   79          -  153.08926      -     -    0s
     0     0  153.22536    0   79          -  153.22536      -     -    0s
     0     0  153.23503    0   81          -  153.23503      -     -    0s
H    0     0                     160.3874564  153.23503  4.46%     -    0s
     0     0  153.38015    0   82  160.38746  153.38015  4.37%     -    0s
H    0     0                     159.8170791  153.38015  4.03%     -    0s
     0     0  153.38414    0   83  159.81708  153.38414  4.03%     -    0s
     0     0  153.38754    0   82  159.81708  153.38754  4.02%     -    0s
     0     0  153.38754    0   82  159.81708  153.38754  4.02%     -    0s
     0     0  153.38754    0   53  159.81708  153.38754  4.02%     -    0s
     0     0  153.38754    0   56  159.81708  153.38754  4.02%     -    0s
     0     0  153.40751    0   57  159.81708  153.40751  4.01%     -    0s
     0     0  153.44819    0   59  159.81708  153.44819  3.99%     -    0s
     0     0  153.44950    0   60  159.81708  153.44950  3.98%     -    0s
     0     0  153.54001    0   59  159.81708  153.54001  3.93%     -    0s
     0     0  153.54206    0   60  159.81708  153.54206  3.93%     -    0s
     0     0  153.56581    0   60  159.81708  153.56581  3.91%     -    0s
     0     0  153.56581    0   60  159.81708  153.56581  3.91%     -    0s
     0     2  153.56581    0   60  159.81708  153.56581  3.91%     -    0s
H  233   205                     159.7839806  154.62383  3.23%  13.1    0s
*  320   280              48     159.6962188  154.62383  3.18%  11.9    0s
H  418   329                     159.4049166  154.76348  2.91%  11.7    0s
H  429   326                     159.3484838  154.76348  2.88%  11.5    0s
H 1246   866                     159.2619369  155.47159  2.38%  13.1    1s
H 1384   883                     159.2564881  155.47159  2.38%  13.4    1s
H15253  7891                     159.2310004  157.15503  1.30%  11.6    3s
 23368 11200     cutoff   29       159.23100  157.47024  1.11%  11.2    5s
H24493 11551                     159.2000201  157.49674  1.07%  11.1    5s
 42790 16190  159.08486   41   27  159.20002  157.88838  0.82%  11.2   10s
 76365 17113     cutoff   40       159.20002  158.42263  0.49%  11.4   15s
 112915 11281  159.02834   40   21  159.20002  158.83596  0.23%  10.7   20s

Cutting planes:
  Gomory: 5
  MIR: 99
  Flow cover: 55

Explored 134192 nodes (1334830 simplex iterations) in 22.64 seconds
Thread count was 8 (of 8 available processors)

Optimal solution found (tolerance 1.00e-04)
Best objective 1.592000200721e+02, best bound 1.591843893100e+02, gap 0.0098%

Wrote requested result file 'H1\instance7\\Results7E_Sol6.lp'

